c This Formular was created for testing purposes
c
c    horn? no
c    forced? no
c    mixed sat? no
c    clause length = 3
c
p cnf
1	-15	17
-33	12	14
7	27	11
10	23	25
2	14	6
30	19	10
5	6	3
15	9	-19
49	16	18
4	26	8
24	-39	31
-34	47	-36
-35	9	20
16	-38	15
-37	29	12
-34	27	13
14	21	-40
32	51	-33
22	-7	24
45	28	44
-54	-56	-58
41	31	21
-57	4	15
-55	42	-14
-53	49	45
43	47	23
50	-59	-60
13	10	46
52	50	4
14	48	15
70	4	77
62	-74	13
68	16	23
63	10	-79
67	-75	27
64	-73	15
66	31	-76
61	-80	24
69	71	-78
65	72	17
%
0
